c CNF file corresponding to a (partial) station packing problem.
p cnf 2682 229
1 2 3 4 5 6 7 8 9 10 11 12 13 14 0
-1 -2 0
-1 -3 0
-1 -4 0
-1 -5 0
-1 -6 0
-1 -7 0
-1 -8 0
-1 -9 0
-1 -10 0
-1 -11 0
-1 -12 0
-1 -13 0
-1 -14 0
-2 -3 0
-2 -4 0
-2 -5 0
-2 -6 0
-2 -7 0
-2 -8 0
-2 -9 0
-2 -10 0
-2 -11 0
-2 -12 0
-2 -13 0
-2 -14 0
-3 -4 0
-3 -5 0
-3 -6 0
-3 -7 0
-3 -8 0
-3 -9 0
-3 -10 0
-3 -11 0
-3 -12 0
-3 -13 0
-3 -14 0
-4 -5 0
-4 -6 0
-4 -7 0
-4 -8 0
-4 -9 0
-4 -10 0
-4 -11 0
-4 -12 0
-4 -13 0
-4 -14 0
-5 -6 0
-5 -7 0
-5 -8 0
-5 -9 0
-5 -10 0
-5 -11 0
-5 -12 0
-5 -13 0
-5 -14 0
-6 -7 0
-6 -8 0
-6 -9 0
-6 -10 0
-6 -11 0
-6 -12 0
-6 -13 0
-6 -14 0
-7 -8 0
-7 -9 0
-7 -10 0
-7 -11 0
-7 -12 0
-7 -13 0
-7 -14 0
-8 -9 0
-8 -10 0
-8 -11 0
-8 -12 0
-8 -13 0
-8 -14 0
-9 -10 0
-9 -11 0
-9 -12 0
-9 -13 0
-9 -14 0
-10 -11 0
-10 -12 0
-10 -13 0
-10 -14 0
-11 -12 0
-11 -13 0
-11 -14 0
-12 -13 0
-12 -14 0
-13 -14 0
2666 2667 2668 2669 2670 2671 2672 2673 2674 2675 2676 2677 2678 2679 2680 2681 2682 0
-2666 -2667 0
-2666 -2668 0
-2666 -2669 0
-2666 -2670 0
-2666 -2671 0
-2666 -2672 0
-2666 -2673 0
-2666 -2674 0
-2666 -2675 0
-2666 -2676 0
-2666 -2677 0
-2666 -2678 0
-2666 -2679 0
-2666 -2680 0
-2666 -2681 0
-2666 -2682 0
-2667 -2668 0
-2667 -2669 0
-2667 -2670 0
-2667 -2671 0
-2667 -2672 0
-2667 -2673 0
-2667 -2674 0
-2667 -2675 0
-2667 -2676 0
-2667 -2677 0
-2667 -2678 0
-2667 -2679 0
-2667 -2680 0
-2667 -2681 0
-2667 -2682 0
-2668 -2669 0
-2668 -2670 0
-2668 -2671 0
-2668 -2672 0
-2668 -2673 0
-2668 -2674 0
-2668 -2675 0
-2668 -2676 0
-2668 -2677 0
-2668 -2678 0
-2668 -2679 0
-2668 -2680 0
-2668 -2681 0
-2668 -2682 0
-2669 -2670 0
-2669 -2671 0
-2669 -2672 0
-2669 -2673 0
-2669 -2674 0
-2669 -2675 0
-2669 -2676 0
-2669 -2677 0
-2669 -2678 0
-2669 -2679 0
-2669 -2680 0
-2669 -2681 0
-2669 -2682 0
-2670 -2671 0
-2670 -2672 0
-2670 -2673 0
-2670 -2674 0
-2670 -2675 0
-2670 -2676 0
-2670 -2677 0
-2670 -2678 0
-2670 -2679 0
-2670 -2680 0
-2670 -2681 0
-2670 -2682 0
-2671 -2672 0
-2671 -2673 0
-2671 -2674 0
-2671 -2675 0
-2671 -2676 0
-2671 -2677 0
-2671 -2678 0
-2671 -2679 0
-2671 -2680 0
-2671 -2681 0
-2671 -2682 0
-2672 -2673 0
-2672 -2674 0
-2672 -2675 0
-2672 -2676 0
-2672 -2677 0
-2672 -2678 0
-2672 -2679 0
-2672 -2680 0
-2672 -2681 0
-2672 -2682 0
-2673 -2674 0
-2673 -2675 0
-2673 -2676 0
-2673 -2677 0
-2673 -2678 0
-2673 -2679 0
-2673 -2680 0
-2673 -2681 0
-2673 -2682 0
-2674 -2675 0
-2674 -2676 0
-2674 -2677 0
-2674 -2678 0
-2674 -2679 0
-2674 -2680 0
-2674 -2681 0
-2674 -2682 0
-2675 -2676 0
-2675 -2677 0
-2675 -2678 0
-2675 -2679 0
-2675 -2680 0
-2675 -2681 0
-2675 -2682 0
-2676 -2677 0
-2676 -2678 0
-2676 -2679 0
-2676 -2680 0
-2676 -2681 0
-2676 -2682 0
-2677 -2678 0
-2677 -2679 0
-2677 -2680 0
-2677 -2681 0
-2677 -2682 0
-2678 -2679 0
-2678 -2680 0
-2678 -2681 0
-2678 -2682 0
-2679 -2680 0
-2679 -2681 0
-2679 -2682 0
-2680 -2681 0
-2680 -2682 0
-2681 -2682 0
